5 5
3 90 1 5 0 61 2 4 4 56
1 88 3 75 4 94 2 48 0 48
2 35 4 33 3 21 0 5 1 64
3 69 2 21 4 89 0 74 1 83
4 32 1 18 2 58 3 98 0 79
-1
0 2 4 5
0 2 3 5
0 2 3 4 5
0 2 5
0 2 3 4 5
-2
144 193 222
185 328 354
74 119 148 239
112 397
64 130 257 342

448 8
13 18 2 9 24
5 21 14 1 19
10 16 22 8 3
15 12 6 0 23
20 11 17 7 4
